datasets/2-dimensional/CL_09_25_10.vbp
2
772 891 
25
224 301 30
195 278 72
269 139 4
110 353 88
388 285 54
367 303 64
314 272 90
297 160 26
182 334 94
236 359 28
225 203 72
315 232 49
175 313 54
169 113 19
166 298 28
131 135 61
132 191 84
334 232 23
105 125 67
111 136 53
220 333 54
396 281 16
109 249 9
123 301 54
105 306 77
