datasets/2-dimensional/CL_09_25_10.txt
772 891 
0 30 224 301 
1 72 195 278 
2 4 269 139 
3 88 110 353 
4 54 388 285 
5 64 367 303 
6 90 314 272 
7 26 297 160 
8 94 182 334 
9 28 236 359 
10 72 225 203 
11 49 315 232 
12 54 175 313 
13 19 169 113 
14 28 166 298 
15 61 131 135 
16 84 132 191 
17 23 334 232 
18 67 105 125 
19 53 111 136 
20 54 220 333 
21 16 396 281 
22 9 109 249 
23 54 123 301 
24 77 105 306 
